x = 17;
y = 15;
c = 89;
n = 61;

p = [44  96  70  10  47  36  41  65  99  82  83  100  93  72  77  27  37  68  43  63  21  11  87  93  68  65  37  19  96  83  26  83  77  17  15  40  22  48  89  100  78  52  96  93  87  69  67  14  53  41  40  72  42  71  77  48  55  94  36  14  68];
w = [2  9  1  1  2  8  8  10  3  4  6  2  4  3  7  10  8  6  9  2  10  5  1  3  10  9  4  6  9  5  10  6  5  4  1  2  10  9  4  2  9  9  9  2  2  1  6  8  1  2  3  6  7  4  4  4  5  7  10  7  8];
s = [8  4  1  7  10  11  15  5  11  10  15  13  3  5  4  3  2  5  9  12  11  5  10  11  11  9  12  5  7  6  9  6  11  10  10  12  4  6  11  7  7  4  3  4  15  12  9  11  7  9  10  10  2  12  2  6  9  14  2  4  3];
